COLUMNS

passenger_count
pickup_ID
dropoff_ID
request_time_sec
pickup_district
dropoff_district
LDuals
IDuals
vehicle_ID
pick_position
drop_position

REQUESTS_INFO
1      818       601       28766     290       189       303       303       8         1         2         
3      633       413       28874     189       52        127       127       43        1         3         
1      527       533       28860     52        199       148       148       117       1         2         
2      923       838       28865     290       290       170       170       183       1         3         
1      291       392       28801     87        52        257       257       215       1         3         
1      793       559       28861     290       189       152       152       238       1         3         
3      291       628       28869     87        189       189       189       254       1         2         
1      277       513       28812     87        199       218       218       256       1         2         
1      344       347       28883     299       299       155       155       282       1         2         
1      286       286       28871     299       299       164       164       287       1         2         
1      768       648       28889     290       189       117       117       297       1         3         
1      295       838       28855     87        290       201       201       314       1         2         
3      863       459       28729     290       189       347       347       324       1         2         
1      337       47        28857     277       98        170       170       360       1         2         
1      292       582       28842     87        189       150       150       365       1         4         
1      621       670       28877     280       280       103       103       400       1         3         
1      410       720       28888     52        290       135       135       432       1         4         
1      817       836       28876     290       290       139       139       495       1         3         
1      410       392       28840     52        52        183       183       519       1         2         
1      771       64        28874     290       98        129       129       533       1         3         
1      335       213       28886     119       266       187       187       547       1         2         
1      863       812       28831     290       290       217       217       557       1         2         
1      330       672       28809     127       189       216       216       567       1         4         
1      462       580       28881     189       189       113       113       575       1         5         
1      457       376       28849     52        168       183       183       586       1         2         
3      909       439       28788     290       189       281       281       636       1         2         
1      968       697       28860     290       189       204       204       638       1         3         
2      908       925       28853     290       290       232       232       651       1         2         
3      526       673       28887     52        189       140       140       703       1         2         
2      1047      858       28876     291       290       186       186       767       1         3         
3      333       627       28842     119       189       215       215       796       1         2         
1      330       463       28888     127       168       137       137       809       1         3         
1      351       178       28884     52        178       207       207       819       1         3         
1      961       738       28859     291       189       193       193       822       1         2         
3      909       559       28823     290       189       246       246       839       1         3         
3      908       925       28853     290       290       232       232       864       1         2         
1      888       377       28730     290       168       334       334       865       1         2         
3      909       559       28823     290       189       246       246       867       1         3         
1      909       673       28864     290       189       162       162       867       2         4         
1      902       438       28861     50        100       171       171       882       1         2         
1      337       606       28876     277       189       151       151       884       1         2         
1      306       190       28887     299       286       159       159       903       1         2         
2      928       527       28749     290       52        340       340       906       1         2         
3      896       699       28764     291       290       285       285       908       1         2         
1      862       81        28856     290       98        187       187       954       1         3         
3      794       535       28828     290       189       195       195       971       1         3         
1      992       1200      28881     290       84        209       209       989       1         3         
3      992       599       28832     290       280       258       258       1035      1         2         
1      842       652       28882     290       189       145       145       1037      1         3         
2      909       675       28848     290       189       221       221       1052      1         3         
4      925       719       28730     290       189       317       317       1108      1         2         
1      1091      599       28868     291       280       204       204       1189      1         2         
1      907       918       28856     290       50        197       197       1201      1         3         
3      1087      973       28838     291       84        217       217       1258      1         3         
1      1090      604       28869     291       189       220       220       1261      1         3         
1      415       327       28875     100       299       102       102       1265      1         2         
3      794       557       28701     290       189       322       322       1288      1         2         
2      598       694       28885     189       189       109       109       1337      1         2         
3      633       413       28874     189       52        127       127       1416      1         3         
3      325       555       28792     299       199       210       210       1871      1         2         
1      946       737       28830     290       189       172       172       1875      1         5         
2      1000      652       28830     291       189       197       197       1927      1         4         
3      419       504       28837     168       52        155       155       1990      1         2         
4      971       646       28736     290       280       351       351       1992      1         2         
1      508       505       28890     199       52        0         0         0         0         0         
1      374       171       28890     119       286       0         0         0         0         0         
1      1128      937       28890     291       291       0         0         0         0         0         
1      771       723       28890     290       290       0         0         0         0         0         
1      48        19        28890     98        98        0         0         0         0         0         
1      828       928       28890     291       290       0         0         0         0         0         
1      337       581       28891     277       189       0         0         0         0         0         
1      607       412       28891     189       52        0         0         0         0         0         
1      1053      968       28891     84        290       0         0         0         0         0         
1      949       925       28891     290       290       0         0         0         0         0         
2      1001      737       28891     291       189       0         0         0         0         0         
1      816       117       28891     290       286       0         0         0         0         0         
2      860       760       28891     290       291       0         0         0         0         0         
1      990       740       28892     290       50        0         0         0         0         0         
2      433       805       28893     52        291       0         0         0         0         0         
1      1244      838       28893     192       290       0         0         0         0         0         
1      527       553       28893     52        189       0         0         0         0         0         
1      549       644       28893     52        131       0         0         0         0         0         
1      118       189       28893     286       286       0         0         0         0         0         
2      415       726       28893     100       290       0         0         0         0         0         
3      415       726       28893     100       290       0         0         0         0         0         
4      412       373       28894     52        119       0         0         0         0         0         
1      850       718       28894     291       189       0         0         0         0         0         
1      43        22        28895     9         98        0         0         0         0         0         
4      19        19        28895     98        98        0         0         0         0         0         
1      438       742       28895     100       290       0         0         0         0         0         
1      874       782       28896     291       291       0         0         0         0         0         
1      888       583       28896     290       189       0         0         0         0         0         
1      662       268       28896     131       299       0         0         0         0         0         
3      1187      479       28896     291       52        0         0         0         0         0         
3      1187      479       28896     291       52        0         0         0         0         0         
3      466       675       28896     199       189       0         0         0         0         0         
3      466       675       28896     199       189       0         0         0         0         0         
1      597       720       28896     131       290       0         0         0         0         0         
1      554       530       28897     189       189       0         0         0         0         0         
1      270       116       28897     127       9         0         0         0         0         0         
1      229       217       28897     266       87        0         0         0         0         0         
1      874       649       28897     291       189       0         0         0         0         0         
1      64        526       28897     98        52        0         0         0         0         0         
1      908       1218      28898     290       84        0         0         0         0         0         
1      743       698       28898     290       189       0         0         0         0         0         
1      208       135       28898     286       286       0         0         0         0         0         
2      837       232       28898     290       266       0         0         0         0         0         
1      486       603       28899     199       189       0         0         0         0         0         
1      504       616       28899     52        131       0         0         0         0         0         
1      871       923       28899     291       290       0         0         0         0         0         
1      699       583       28900     290       189       0         0         0         0         0         
3      155       161       28900     286       178       0         0         0         0         0         
1      723       723       28900     290       290       0         0         0         0         0         
1      780       189       28900     291       286       0         0         0         0         0         
3      155       161       28900     286       178       0         0         0         0         0         
2      905       116       28901     290       9         0         0         0         0         0         
3      847       738       28901     291       189       0         0         0         0         0         
1      509       439       28901     199       189       0         0         0         0         0         
2      723       551       28901     290       189       0         0         0         0         0         
1      737       1208      28901     189       192       0         0         0         0         0         
1      532       484       28901     199       189       0         0         0         0         0         
1      392       552       28901     52        189       0         0         0         0         0         
1      838       628       28902     290       189       0         0         0         0         0         
1      276       271       28902     87        127       0         0         0         0         0         
1      504       393       28902     52        52        0         0         0         0         0         
2      1218      794       28903     84        290       0         0         0         0         0         
1      415       531       28903     100       189       0         0         0         0         0         
1      756       599       28903     131       280       0         0         0         0         0         
4      500       555       28904     52        199       0         0         0         0         0         
1      390       413       28904     52        52        0         0         0         0         0         
2      631       676       28904     189       189       0         0         0         0         0         
1      883       652       28904     290       189       0         0         0         0         0         
1      972       648       28904     290       189       0         0         0         0         0         
3      1117      994       28905     84        84        0         0         0         0         0         
3      1117      994       28905     84        84        0         0         0         0         0         
1      549       689       28905     52        131       0         0         0         0         0         
1      984       622       28905     291       280       0         0         0         0         0         
1      968       788       28905     290       290       0         0         0         0         0         
1      772       837       28905     290       290       0         0         0         0         0         
2      527       332       28905     52        87        0         0         0         0         0         
1      348       555       28906     299       199       0         0         0         0         0         
1      603       691       28906     189       131       0         0         0         0         0         
1      691       695       28906     131       189       0         0         0         0         0         
1      421       581       28906     168       189       0         0         0         0         0         
1      721       1181      28906     290       84        0         0         0         0         0         
2      783       651       28907     50        189       0         0         0         0         0         
1      669       527       28907     280       52        0         0         0         0         0         
3      783       651       28907     50        189       0         0         0         0         0         
3      158       1519      28907     174       296       0         0         0         0         0         
3      158       1519      28907     174       296       0         0         0         0         0         
1      377       484       28907     168       189       0         0         0         0         0         
1      1066      892       28907     291       291       0         0         0         0         0         
1      619       444       28907     131       168       0         0         0         0         0         
1      607       603       28907     189       189       0         0         0         0         0         
1      532       417       28908     199       100       0         0         0         0         0         
1      829       650       28908     50        189       0         0         0         0         0         
3      549       615       28908     52        131       0         0         0         0         0         
2      549       615       28908     52        131       0         0         0         0         0         
1      498       719       28908     52        189       0         0         0         0         0         
1      582       1530      28909     189       296       0         0         0         0         0         
2      355       575       28909     119       189       0         0         0         0         0         
1      882       766       28909     290       290       0         0         0         0         0         
2      991       649       28909     290       189       0         0         0         0         0         
1      488       676       28909     199       189       0         0         0         0         0         
3      437       544       28910     100       52        0         0         0         0         0         
3      437       544       28910     100       52        0         0         0         0         0         
3      927       770       28910     290       290       0         0         0         0         0         
1      443       816       28910     168       290       0         0         0         0         0         
2      927       770       28910     290       290       0         0         0         0         0         
1      794       605       28910     290       189       0         0         0         0         0         
3      663       757       28911     131       131       0         0         0         0         0         
2      663       757       28911     131       131       0         0         0         0         0         
1      534       685       28911     199       999       0         0         0         0         0         
1      1022      1328      28912     291       129       0         0         0         0         0         
2      415       209       28912     100       266       0         0         0         0         0         
1      1098      1135      28912     84        50        0         0         0         0         0         
1      419       604       28912     168       189       0         0         0         0         0         
1      925       626       28912     290       189       0         0         0         0         0         
1      461       579       28913     189       189       0         0         0         0         0         
2      295       544       28913     87        52        0         0         0         0         0         
3      295       544       28913     87        52        0         0         0         0         0         
1      487       157       28914     199       54        0         0         0         0         0         
1      413       600       28914     52        280       0         0         0         0         0         
1      175       603       28914     266       189       0         0         0         0         0         
1      395       604       28914     100       189       0         0         0         0         0         
1      909       772       28914     290       290       0         0         0         0         0         
1      768       695       28914     290       189       0         0         0         0         0         
1      842       650       28914     290       189       0         0         0         0         0         
1      304       579       28915     299       189       0         0         0         0         0         
1      829       771       28915     50        290       0         0         0         0         0         
1      690       574       28915     131       189       0         0         0         0         0         
1      835       897       28915     290       291       0         0         0         0         0         
1      894       1517      28915     291       296       0         0         0         0         0         
4      760       671       28915     291       280       0         0         0         0         0         
3      527       534       28916     52        199       0         0         0         0         0         
3      134       247       28916     9         266       0         0         0         0         0         
1      722       695       28916     290       189       0         0         0         0         0         
1      557       629       28916     189       189       0         0         0         0         0         
2      580       97        28916     189       9         0         0         0         0         0         
1      904       972       28917     290       290       0         0         0         0         0         
1      789       604       28917     290       189       0         0         0         0         0         
2      314       624       28917     119       189       0         0         0         0         0         
1      781       580       28917     291       189       0         0         0         0         0         
1      811       649       28918     290       189       0         0         0         0         0         
2      78        351       28918     9         52        0         0         0         0         0         
3      78        351       28918     9         52        0         0         0         0         0         
1      720       1194      28919     290       129       0         0         0         0         0         
2      781       651       28919     291       189       0         0         0         0         0         
3      781       651       28919     291       189       0         0         0         0         0         
1      621       718       28919     280       189       0         0         0         0         0         
